(set-logic QF_LRA)
(declare-fun T1 () Real )
(declare-fun T2 () Real )
(declare-fun T3 () Real )
(declare-fun T4 () Real )
(declare-fun T5 () Real )
(declare-fun T6 () Real )
(declare-fun T7 () Real )
(declare-fun T8 () Real )
(declare-fun Z () Real )
(declare-fun k () Real )
(assert (let
(( $goal (>= Z k) ))
(let
((
$phi ( and 
(or ( <= ( + T1 88 ) T2 ) ( <= ( + T2 20 ) T1 ) )
(or ( <= ( + T1 180 )  ( + T2 20 ) ) ( <= ( + T2 102 )( + T1 88 ) ) )
(or ( <= ( + T1 272 )  ( + T2 102 ) ) ( <= ( + T2 182 )( + T1 180 ) ) )
(or ( <= ( + T1 304 )  ( + T2 182 ) ) ( <= ( + T2 224 )( + T1 272 ) ) )
(or ( <= ( + T1 404 )  ( + T2 224 ) ) ( <= ( + T2 279 )( + T1 304 ) ) )
(or ( <= ( + T1 449 )  ( + T2 279 ) ) ( <= ( + T2 328 )( + T1 404 ) ) )
(or ( <= ( + T1 532 )  ( + T2 328 ) ) ( <= ( + T2 357 )( + T1 449 ) ) )
(or ( <= ( + T1 549 )  ( + T2 357 ) ) ( <= ( + T2 380 )( + T1 532 ) ) )
(or ( <= ( + T1 570 )  ( + T2 380 ) ) ( <= ( + T2 399 )( + T1 549 ) ) )
(or ( <= ( + T1 607 )  ( + T2 399 ) ) ( <= ( + T2 490 )( + T1 570 ) ) )
(or ( <= ( + T1 88 ) T3 ) ( <= ( + T3 44 ) T1 ) )
(or ( <= ( + T1 180 )  ( + T3 44 ) ) ( <= ( + T3 72 )( + T1 88 ) ) )
(or ( <= ( + T1 272 )  ( + T3 72 ) ) ( <= ( + T3 83 )( + T1 180 ) ) )
(or ( <= ( + T1 304 )  ( + T3 83 ) ) ( <= ( + T3 139 )( + T1 272 ) ) )
(or ( <= ( + T1 404 )  ( + T3 139 ) ) ( <= ( + T3 229 )( + T1 304 ) ) )
(or ( <= ( + T1 449 )  ( + T3 229 ) ) ( <= ( + T3 317 )( + T1 404 ) ) )
(or ( <= ( + T1 532 )  ( + T3 317 ) ) ( <= ( + T3 329 )( + T1 449 ) ) )
(or ( <= ( + T1 549 )  ( + T3 329 ) ) ( <= ( + T3 412 )( + T1 532 ) ) )
(or ( <= ( + T1 570 )  ( + T3 412 ) ) ( <= ( + T3 426 )( + T1 549 ) ) )
(or ( <= ( + T1 607 )  ( + T3 426 ) ) ( <= ( + T3 524 )( + T1 570 ) ) )
(or ( <= ( + T1 88 ) T4 ) ( <= ( + T4 31 ) T1 ) )
(or ( <= ( + T1 180 )  ( + T4 31 ) ) ( <= ( + T4 32 )( + T1 88 ) ) )
(or ( <= ( + T1 272 )  ( + T4 32 ) ) ( <= ( + T4 73 )( + T1 180 ) ) )
(or ( <= ( + T1 304 )  ( + T4 73 ) ) ( <= ( + T4 147 )( + T1 272 ) ) )
(or ( <= ( + T1 404 )  ( + T4 147 ) ) ( <= ( + T4 231 )( + T1 304 ) ) )
(or ( <= ( + T1 449 )  ( + T4 231 ) ) ( <= ( + T4 271 )( + T1 404 ) ) )
(or ( <= ( + T1 532 )  ( + T4 271 ) ) ( <= ( + T4 289 )( + T1 449 ) ) )
(or ( <= ( + T1 549 )  ( + T4 289 ) ) ( <= ( + T4 355 )( + T1 532 ) ) )
(or ( <= ( + T1 570 )  ( + T4 355 ) ) ( <= ( + T4 364 )( + T1 549 ) ) )
(or ( <= ( + T1 607 )  ( + T4 364 ) ) ( <= ( + T4 454 )( + T1 570 ) ) )
(or ( <= ( + T1 88 ) T5 ) ( <= ( + T5 54 ) T1 ) )
(or ( <= ( + T1 180 )  ( + T5 54 ) ) ( <= ( + T5 134 )( + T1 88 ) ) )
(or ( <= ( + T1 272 )  ( + T5 134 ) ) ( <= ( + T5 157 )( + T1 180 ) ) )
(or ( <= ( + T1 304 )  ( + T5 157 ) ) ( <= ( + T5 242 )( + T1 272 ) ) )
(or ( <= ( + T1 404 )  ( + T5 242 ) ) ( <= ( + T5 263 )( + T1 304 ) ) )
(or ( <= ( + T1 449 )  ( + T5 263 ) ) ( <= ( + T5 292 )( + T1 404 ) ) )
(or ( <= ( + T1 532 )  ( + T5 292 ) ) ( <= ( + T5 326 )( + T1 449 ) ) )
(or ( <= ( + T1 549 )  ( + T5 326 ) ) ( <= ( + T5 327 )( + T1 532 ) ) )
(or ( <= ( + T1 570 )  ( + T5 327 ) ) ( <= ( + T5 379 )( + T1 549 ) ) )
(or ( <= ( + T1 607 )  ( + T5 379 ) ) ( <= ( + T5 383 )( + T1 570 ) ) )
(or ( <= ( + T1 88 ) T6 ) ( <= ( + T6 44 ) T1 ) )
(or ( <= ( + T1 180 )  ( + T6 44 ) ) ( <= ( + T6 139 )( + T1 88 ) ) )
(or ( <= ( + T1 272 )  ( + T6 139 ) ) ( <= ( + T6 170 )( + T1 180 ) ) )
(or ( <= ( + T1 304 )  ( + T6 170 ) ) ( <= ( + T6 224 )( + T1 272 ) ) )
(or ( <= ( + T1 404 )  ( + T6 224 ) ) ( <= ( + T6 226 )( + T1 304 ) ) )
(or ( <= ( + T1 449 )  ( + T6 226 ) ) ( <= ( + T6 299 )( + T1 404 ) ) )
(or ( <= ( + T1 532 )  ( + T6 299 ) ) ( <= ( + T6 392 )( + T1 449 ) ) )
(or ( <= ( + T1 549 )  ( + T6 392 ) ) ( <= ( + T6 405 )( + T1 532 ) ) )
(or ( <= ( + T1 570 )  ( + T6 405 ) ) ( <= ( + T6 412 )( + T1 549 ) ) )
(or ( <= ( + T1 607 )  ( + T6 412 ) ) ( <= ( + T6 418 )( + T1 570 ) ) )
(or ( <= ( + T1 88 ) T7 ) ( <= ( + T7 10 ) T1 ) )
(or ( <= ( + T1 180 )  ( + T7 10 ) ) ( <= ( + T7 47 )( + T1 88 ) ) )
(or ( <= ( + T1 272 )  ( + T7 47 ) ) ( <= ( + T7 105 )( + T1 180 ) ) )
(or ( <= ( + T1 304 )  ( + T7 105 ) ) ( <= ( + T7 155 )( + T1 272 ) ) )
(or ( <= ( + T1 404 )  ( + T7 155 ) ) ( <= ( + T7 218 )( + T1 304 ) ) )
(or ( <= ( + T1 449 )  ( + T7 218 ) ) ( <= ( + T7 260 )( + T1 404 ) ) )
(or ( <= ( + T1 532 )  ( + T7 260 ) ) ( <= ( + T7 302 )( + T1 449 ) ) )
(or ( <= ( + T1 549 )  ( + T7 302 ) ) ( <= ( + T7 334 )( + T1 532 ) ) )
(or ( <= ( + T1 570 )  ( + T7 334 ) ) ( <= ( + T7 393 )( + T1 549 ) ) )
(or ( <= ( + T1 607 )  ( + T7 393 ) ) ( <= ( + T7 395 )( + T1 570 ) ) )
(or ( <= ( + T1 88 ) T8 ) ( <= ( + T8 74 ) T1 ) )
(or ( <= ( + T1 180 )  ( + T8 74 ) ) ( <= ( + T8 139 )( + T1 88 ) ) )
(or ( <= ( + T1 272 )  ( + T8 139 ) ) ( <= ( + T8 172 )( + T1 180 ) ) )
(or ( <= ( + T1 304 )  ( + T8 172 ) ) ( <= ( + T8 268 )( + T1 272 ) ) )
(or ( <= ( + T1 404 )  ( + T8 268 ) ) ( <= ( + T8 317 )( + T1 304 ) ) )
(or ( <= ( + T1 449 )  ( + T8 317 ) ) ( <= ( + T8 322 )( + T1 404 ) ) )
(or ( <= ( + T1 532 )  ( + T8 322 ) ) ( <= ( + T8 347 )( + T1 449 ) ) )
(or ( <= ( + T1 549 )  ( + T8 347 ) ) ( <= ( + T8 429 )( + T1 532 ) ) )
(or ( <= ( + T1 570 )  ( + T8 429 ) ) ( <= ( + T8 435 )( + T1 549 ) ) )
(or ( <= ( + T1 607 )  ( + T8 435 ) ) ( <= ( + T8 511 )( + T1 570 ) ) )
(or ( <= ( + T2 20 ) T3 ) ( <= ( + T3 44 ) T2 ) )
(or ( <= ( + T2 102 )  ( + T3 44 ) ) ( <= ( + T3 72 )( + T2 20 ) ) )
(or ( <= ( + T2 182 )  ( + T3 72 ) ) ( <= ( + T3 83 )( + T2 102 ) ) )
(or ( <= ( + T2 224 )  ( + T3 83 ) ) ( <= ( + T3 139 )( + T2 182 ) ) )
(or ( <= ( + T2 279 )  ( + T3 139 ) ) ( <= ( + T3 229 )( + T2 224 ) ) )
(or ( <= ( + T2 328 )  ( + T3 229 ) ) ( <= ( + T3 317 )( + T2 279 ) ) )
(or ( <= ( + T2 357 )  ( + T3 317 ) ) ( <= ( + T3 329 )( + T2 328 ) ) )
(or ( <= ( + T2 380 )  ( + T3 329 ) ) ( <= ( + T3 412 )( + T2 357 ) ) )
(or ( <= ( + T2 399 )  ( + T3 412 ) ) ( <= ( + T3 426 )( + T2 380 ) ) )
(or ( <= ( + T2 490 )  ( + T3 426 ) ) ( <= ( + T3 524 )( + T2 399 ) ) )
(or ( <= ( + T2 20 ) T4 ) ( <= ( + T4 31 ) T2 ) )
(or ( <= ( + T2 102 )  ( + T4 31 ) ) ( <= ( + T4 32 )( + T2 20 ) ) )
(or ( <= ( + T2 182 )  ( + T4 32 ) ) ( <= ( + T4 73 )( + T2 102 ) ) )
(or ( <= ( + T2 224 )  ( + T4 73 ) ) ( <= ( + T4 147 )( + T2 182 ) ) )
(or ( <= ( + T2 279 )  ( + T4 147 ) ) ( <= ( + T4 231 )( + T2 224 ) ) )
(or ( <= ( + T2 328 )  ( + T4 231 ) ) ( <= ( + T4 271 )( + T2 279 ) ) )
(or ( <= ( + T2 357 )  ( + T4 271 ) ) ( <= ( + T4 289 )( + T2 328 ) ) )
(or ( <= ( + T2 380 )  ( + T4 289 ) ) ( <= ( + T4 355 )( + T2 357 ) ) )
(or ( <= ( + T2 399 )  ( + T4 355 ) ) ( <= ( + T4 364 )( + T2 380 ) ) )
(or ( <= ( + T2 490 )  ( + T4 364 ) ) ( <= ( + T4 454 )( + T2 399 ) ) )
(or ( <= ( + T2 20 ) T5 ) ( <= ( + T5 54 ) T2 ) )
(or ( <= ( + T2 102 )  ( + T5 54 ) ) ( <= ( + T5 134 )( + T2 20 ) ) )
(or ( <= ( + T2 182 )  ( + T5 134 ) ) ( <= ( + T5 157 )( + T2 102 ) ) )
(or ( <= ( + T2 224 )  ( + T5 157 ) ) ( <= ( + T5 242 )( + T2 182 ) ) )
(or ( <= ( + T2 279 )  ( + T5 242 ) ) ( <= ( + T5 263 )( + T2 224 ) ) )
(or ( <= ( + T2 328 )  ( + T5 263 ) ) ( <= ( + T5 292 )( + T2 279 ) ) )
(or ( <= ( + T2 357 )  ( + T5 292 ) ) ( <= ( + T5 326 )( + T2 328 ) ) )
(or ( <= ( + T2 380 )  ( + T5 326 ) ) ( <= ( + T5 327 )( + T2 357 ) ) )
(or ( <= ( + T2 399 )  ( + T5 327 ) ) ( <= ( + T5 379 )( + T2 380 ) ) )
(or ( <= ( + T2 490 )  ( + T5 379 ) ) ( <= ( + T5 383 )( + T2 399 ) ) )
(or ( <= ( + T2 20 ) T6 ) ( <= ( + T6 44 ) T2 ) )
(or ( <= ( + T2 102 )  ( + T6 44 ) ) ( <= ( + T6 139 )( + T2 20 ) ) )
(or ( <= ( + T2 182 )  ( + T6 139 ) ) ( <= ( + T6 170 )( + T2 102 ) ) )
(or ( <= ( + T2 224 )  ( + T6 170 ) ) ( <= ( + T6 224 )( + T2 182 ) ) )
(or ( <= ( + T2 279 )  ( + T6 224 ) ) ( <= ( + T6 226 )( + T2 224 ) ) )
(or ( <= ( + T2 328 )  ( + T6 226 ) ) ( <= ( + T6 299 )( + T2 279 ) ) )
(or ( <= ( + T2 357 )  ( + T6 299 ) ) ( <= ( + T6 392 )( + T2 328 ) ) )
(or ( <= ( + T2 380 )  ( + T6 392 ) ) ( <= ( + T6 405 )( + T2 357 ) ) )
(or ( <= ( + T2 399 )  ( + T6 405 ) ) ( <= ( + T6 412 )( + T2 380 ) ) )
(or ( <= ( + T2 490 )  ( + T6 412 ) ) ( <= ( + T6 418 )( + T2 399 ) ) )
(or ( <= ( + T2 20 ) T7 ) ( <= ( + T7 10 ) T2 ) )
(or ( <= ( + T2 102 )  ( + T7 10 ) ) ( <= ( + T7 47 )( + T2 20 ) ) )
(or ( <= ( + T2 182 )  ( + T7 47 ) ) ( <= ( + T7 105 )( + T2 102 ) ) )
(or ( <= ( + T2 224 )  ( + T7 105 ) ) ( <= ( + T7 155 )( + T2 182 ) ) )
(or ( <= ( + T2 279 )  ( + T7 155 ) ) ( <= ( + T7 218 )( + T2 224 ) ) )
(or ( <= ( + T2 328 )  ( + T7 218 ) ) ( <= ( + T7 260 )( + T2 279 ) ) )
(or ( <= ( + T2 357 )  ( + T7 260 ) ) ( <= ( + T7 302 )( + T2 328 ) ) )
(or ( <= ( + T2 380 )  ( + T7 302 ) ) ( <= ( + T7 334 )( + T2 357 ) ) )
(or ( <= ( + T2 399 )  ( + T7 334 ) ) ( <= ( + T7 393 )( + T2 380 ) ) )
(or ( <= ( + T2 490 )  ( + T7 393 ) ) ( <= ( + T7 395 )( + T2 399 ) ) )
(or ( <= ( + T2 20 ) T8 ) ( <= ( + T8 74 ) T2 ) )
(or ( <= ( + T2 102 )  ( + T8 74 ) ) ( <= ( + T8 139 )( + T2 20 ) ) )
(or ( <= ( + T2 182 )  ( + T8 139 ) ) ( <= ( + T8 172 )( + T2 102 ) ) )
(or ( <= ( + T2 224 )  ( + T8 172 ) ) ( <= ( + T8 268 )( + T2 182 ) ) )
(or ( <= ( + T2 279 )  ( + T8 268 ) ) ( <= ( + T8 317 )( + T2 224 ) ) )
(or ( <= ( + T2 328 )  ( + T8 317 ) ) ( <= ( + T8 322 )( + T2 279 ) ) )
(or ( <= ( + T2 357 )  ( + T8 322 ) ) ( <= ( + T8 347 )( + T2 328 ) ) )
(or ( <= ( + T2 380 )  ( + T8 347 ) ) ( <= ( + T8 429 )( + T2 357 ) ) )
(or ( <= ( + T2 399 )  ( + T8 429 ) ) ( <= ( + T8 435 )( + T2 380 ) ) )
(or ( <= ( + T2 490 )  ( + T8 435 ) ) ( <= ( + T8 511 )( + T2 399 ) ) )
(or ( <= ( + T3 44 ) T4 ) ( <= ( + T4 31 ) T3 ) )
(or ( <= ( + T3 72 )  ( + T4 31 ) ) ( <= ( + T4 32 )( + T3 44 ) ) )
(or ( <= ( + T3 83 )  ( + T4 32 ) ) ( <= ( + T4 73 )( + T3 72 ) ) )
(or ( <= ( + T3 139 )  ( + T4 73 ) ) ( <= ( + T4 147 )( + T3 83 ) ) )
(or ( <= ( + T3 229 )  ( + T4 147 ) ) ( <= ( + T4 231 )( + T3 139 ) ) )
(or ( <= ( + T3 317 )  ( + T4 231 ) ) ( <= ( + T4 271 )( + T3 229 ) ) )
(or ( <= ( + T3 329 )  ( + T4 271 ) ) ( <= ( + T4 289 )( + T3 317 ) ) )
(or ( <= ( + T3 412 )  ( + T4 289 ) ) ( <= ( + T4 355 )( + T3 329 ) ) )
(or ( <= ( + T3 426 )  ( + T4 355 ) ) ( <= ( + T4 364 )( + T3 412 ) ) )
(or ( <= ( + T3 524 )  ( + T4 364 ) ) ( <= ( + T4 454 )( + T3 426 ) ) )
(or ( <= ( + T3 44 ) T5 ) ( <= ( + T5 54 ) T3 ) )
(or ( <= ( + T3 72 )  ( + T5 54 ) ) ( <= ( + T5 134 )( + T3 44 ) ) )
(or ( <= ( + T3 83 )  ( + T5 134 ) ) ( <= ( + T5 157 )( + T3 72 ) ) )
(or ( <= ( + T3 139 )  ( + T5 157 ) ) ( <= ( + T5 242 )( + T3 83 ) ) )
(or ( <= ( + T3 229 )  ( + T5 242 ) ) ( <= ( + T5 263 )( + T3 139 ) ) )
(or ( <= ( + T3 317 )  ( + T5 263 ) ) ( <= ( + T5 292 )( + T3 229 ) ) )
(or ( <= ( + T3 329 )  ( + T5 292 ) ) ( <= ( + T5 326 )( + T3 317 ) ) )
(or ( <= ( + T3 412 )  ( + T5 326 ) ) ( <= ( + T5 327 )( + T3 329 ) ) )
(or ( <= ( + T3 426 )  ( + T5 327 ) ) ( <= ( + T5 379 )( + T3 412 ) ) )
(or ( <= ( + T3 524 )  ( + T5 379 ) ) ( <= ( + T5 383 )( + T3 426 ) ) )
(or ( <= ( + T3 44 ) T6 ) ( <= ( + T6 44 ) T3 ) )
(or ( <= ( + T3 72 )  ( + T6 44 ) ) ( <= ( + T6 139 )( + T3 44 ) ) )
(or ( <= ( + T3 83 )  ( + T6 139 ) ) ( <= ( + T6 170 )( + T3 72 ) ) )
(or ( <= ( + T3 139 )  ( + T6 170 ) ) ( <= ( + T6 224 )( + T3 83 ) ) )
(or ( <= ( + T3 229 )  ( + T6 224 ) ) ( <= ( + T6 226 )( + T3 139 ) ) )
(or ( <= ( + T3 317 )  ( + T6 226 ) ) ( <= ( + T6 299 )( + T3 229 ) ) )
(or ( <= ( + T3 329 )  ( + T6 299 ) ) ( <= ( + T6 392 )( + T3 317 ) ) )
(or ( <= ( + T3 412 )  ( + T6 392 ) ) ( <= ( + T6 405 )( + T3 329 ) ) )
(or ( <= ( + T3 426 )  ( + T6 405 ) ) ( <= ( + T6 412 )( + T3 412 ) ) )
(or ( <= ( + T3 524 )  ( + T6 412 ) ) ( <= ( + T6 418 )( + T3 426 ) ) )
(or ( <= ( + T3 44 ) T7 ) ( <= ( + T7 10 ) T3 ) )
(or ( <= ( + T3 72 )  ( + T7 10 ) ) ( <= ( + T7 47 )( + T3 44 ) ) )
(or ( <= ( + T3 83 )  ( + T7 47 ) ) ( <= ( + T7 105 )( + T3 72 ) ) )
(or ( <= ( + T3 139 )  ( + T7 105 ) ) ( <= ( + T7 155 )( + T3 83 ) ) )
(or ( <= ( + T3 229 )  ( + T7 155 ) ) ( <= ( + T7 218 )( + T3 139 ) ) )
(or ( <= ( + T3 317 )  ( + T7 218 ) ) ( <= ( + T7 260 )( + T3 229 ) ) )
(or ( <= ( + T3 329 )  ( + T7 260 ) ) ( <= ( + T7 302 )( + T3 317 ) ) )
(or ( <= ( + T3 412 )  ( + T7 302 ) ) ( <= ( + T7 334 )( + T3 329 ) ) )
(or ( <= ( + T3 426 )  ( + T7 334 ) ) ( <= ( + T7 393 )( + T3 412 ) ) )
(or ( <= ( + T3 524 )  ( + T7 393 ) ) ( <= ( + T7 395 )( + T3 426 ) ) )
(or ( <= ( + T3 44 ) T8 ) ( <= ( + T8 74 ) T3 ) )
(or ( <= ( + T3 72 )  ( + T8 74 ) ) ( <= ( + T8 139 )( + T3 44 ) ) )
(or ( <= ( + T3 83 )  ( + T8 139 ) ) ( <= ( + T8 172 )( + T3 72 ) ) )
(or ( <= ( + T3 139 )  ( + T8 172 ) ) ( <= ( + T8 268 )( + T3 83 ) ) )
(or ( <= ( + T3 229 )  ( + T8 268 ) ) ( <= ( + T8 317 )( + T3 139 ) ) )
(or ( <= ( + T3 317 )  ( + T8 317 ) ) ( <= ( + T8 322 )( + T3 229 ) ) )
(or ( <= ( + T3 329 )  ( + T8 322 ) ) ( <= ( + T8 347 )( + T3 317 ) ) )
(or ( <= ( + T3 412 )  ( + T8 347 ) ) ( <= ( + T8 429 )( + T3 329 ) ) )
(or ( <= ( + T3 426 )  ( + T8 429 ) ) ( <= ( + T8 435 )( + T3 412 ) ) )
(or ( <= ( + T3 524 )  ( + T8 435 ) ) ( <= ( + T8 511 )( + T3 426 ) ) )
(or ( <= ( + T4 31 ) T5 ) ( <= ( + T5 54 ) T4 ) )
(or ( <= ( + T4 32 )  ( + T5 54 ) ) ( <= ( + T5 134 )( + T4 31 ) ) )
(or ( <= ( + T4 73 )  ( + T5 134 ) ) ( <= ( + T5 157 )( + T4 32 ) ) )
(or ( <= ( + T4 147 )  ( + T5 157 ) ) ( <= ( + T5 242 )( + T4 73 ) ) )
(or ( <= ( + T4 231 )  ( + T5 242 ) ) ( <= ( + T5 263 )( + T4 147 ) ) )
(or ( <= ( + T4 271 )  ( + T5 263 ) ) ( <= ( + T5 292 )( + T4 231 ) ) )
(or ( <= ( + T4 289 )  ( + T5 292 ) ) ( <= ( + T5 326 )( + T4 271 ) ) )
(or ( <= ( + T4 355 )  ( + T5 326 ) ) ( <= ( + T5 327 )( + T4 289 ) ) )
(or ( <= ( + T4 364 )  ( + T5 327 ) ) ( <= ( + T5 379 )( + T4 355 ) ) )
(or ( <= ( + T4 454 )  ( + T5 379 ) ) ( <= ( + T5 383 )( + T4 364 ) ) )
(or ( <= ( + T4 31 ) T6 ) ( <= ( + T6 44 ) T4 ) )
(or ( <= ( + T4 32 )  ( + T6 44 ) ) ( <= ( + T6 139 )( + T4 31 ) ) )
(or ( <= ( + T4 73 )  ( + T6 139 ) ) ( <= ( + T6 170 )( + T4 32 ) ) )
(or ( <= ( + T4 147 )  ( + T6 170 ) ) ( <= ( + T6 224 )( + T4 73 ) ) )
(or ( <= ( + T4 231 )  ( + T6 224 ) ) ( <= ( + T6 226 )( + T4 147 ) ) )
(or ( <= ( + T4 271 )  ( + T6 226 ) ) ( <= ( + T6 299 )( + T4 231 ) ) )
(or ( <= ( + T4 289 )  ( + T6 299 ) ) ( <= ( + T6 392 )( + T4 271 ) ) )
(or ( <= ( + T4 355 )  ( + T6 392 ) ) ( <= ( + T6 405 )( + T4 289 ) ) )
(or ( <= ( + T4 364 )  ( + T6 405 ) ) ( <= ( + T6 412 )( + T4 355 ) ) )
(or ( <= ( + T4 454 )  ( + T6 412 ) ) ( <= ( + T6 418 )( + T4 364 ) ) )
(or ( <= ( + T4 31 ) T7 ) ( <= ( + T7 10 ) T4 ) )
(or ( <= ( + T4 32 )  ( + T7 10 ) ) ( <= ( + T7 47 )( + T4 31 ) ) )
(or ( <= ( + T4 73 )  ( + T7 47 ) ) ( <= ( + T7 105 )( + T4 32 ) ) )
(or ( <= ( + T4 147 )  ( + T7 105 ) ) ( <= ( + T7 155 )( + T4 73 ) ) )
(or ( <= ( + T4 231 )  ( + T7 155 ) ) ( <= ( + T7 218 )( + T4 147 ) ) )
(or ( <= ( + T4 271 )  ( + T7 218 ) ) ( <= ( + T7 260 )( + T4 231 ) ) )
(or ( <= ( + T4 289 )  ( + T7 260 ) ) ( <= ( + T7 302 )( + T4 271 ) ) )
(or ( <= ( + T4 355 )  ( + T7 302 ) ) ( <= ( + T7 334 )( + T4 289 ) ) )
(or ( <= ( + T4 364 )  ( + T7 334 ) ) ( <= ( + T7 393 )( + T4 355 ) ) )
(or ( <= ( + T4 454 )  ( + T7 393 ) ) ( <= ( + T7 395 )( + T4 364 ) ) )
(or ( <= ( + T4 31 ) T8 ) ( <= ( + T8 74 ) T4 ) )
(or ( <= ( + T4 32 )  ( + T8 74 ) ) ( <= ( + T8 139 )( + T4 31 ) ) )
(or ( <= ( + T4 73 )  ( + T8 139 ) ) ( <= ( + T8 172 )( + T4 32 ) ) )
(or ( <= ( + T4 147 )  ( + T8 172 ) ) ( <= ( + T8 268 )( + T4 73 ) ) )
(or ( <= ( + T4 231 )  ( + T8 268 ) ) ( <= ( + T8 317 )( + T4 147 ) ) )
(or ( <= ( + T4 271 )  ( + T8 317 ) ) ( <= ( + T8 322 )( + T4 231 ) ) )
(or ( <= ( + T4 289 )  ( + T8 322 ) ) ( <= ( + T8 347 )( + T4 271 ) ) )
(or ( <= ( + T4 355 )  ( + T8 347 ) ) ( <= ( + T8 429 )( + T4 289 ) ) )
(or ( <= ( + T4 364 )  ( + T8 429 ) ) ( <= ( + T8 435 )( + T4 355 ) ) )
(or ( <= ( + T4 454 )  ( + T8 435 ) ) ( <= ( + T8 511 )( + T4 364 ) ) )
(or ( <= ( + T5 54 ) T6 ) ( <= ( + T6 44 ) T5 ) )
(or ( <= ( + T5 134 )  ( + T6 44 ) ) ( <= ( + T6 139 )( + T5 54 ) ) )
(or ( <= ( + T5 157 )  ( + T6 139 ) ) ( <= ( + T6 170 )( + T5 134 ) ) )
(or ( <= ( + T5 242 )  ( + T6 170 ) ) ( <= ( + T6 224 )( + T5 157 ) ) )
(or ( <= ( + T5 263 )  ( + T6 224 ) ) ( <= ( + T6 226 )( + T5 242 ) ) )
(or ( <= ( + T5 292 )  ( + T6 226 ) ) ( <= ( + T6 299 )( + T5 263 ) ) )
(or ( <= ( + T5 326 )  ( + T6 299 ) ) ( <= ( + T6 392 )( + T5 292 ) ) )
(or ( <= ( + T5 327 )  ( + T6 392 ) ) ( <= ( + T6 405 )( + T5 326 ) ) )
(or ( <= ( + T5 379 )  ( + T6 405 ) ) ( <= ( + T6 412 )( + T5 327 ) ) )
(or ( <= ( + T5 383 )  ( + T6 412 ) ) ( <= ( + T6 418 )( + T5 379 ) ) )
(or ( <= ( + T5 54 ) T7 ) ( <= ( + T7 10 ) T5 ) )
(or ( <= ( + T5 134 )  ( + T7 10 ) ) ( <= ( + T7 47 )( + T5 54 ) ) )
(or ( <= ( + T5 157 )  ( + T7 47 ) ) ( <= ( + T7 105 )( + T5 134 ) ) )
(or ( <= ( + T5 242 )  ( + T7 105 ) ) ( <= ( + T7 155 )( + T5 157 ) ) )
(or ( <= ( + T5 263 )  ( + T7 155 ) ) ( <= ( + T7 218 )( + T5 242 ) ) )
(or ( <= ( + T5 292 )  ( + T7 218 ) ) ( <= ( + T7 260 )( + T5 263 ) ) )
(or ( <= ( + T5 326 )  ( + T7 260 ) ) ( <= ( + T7 302 )( + T5 292 ) ) )
(or ( <= ( + T5 327 )  ( + T7 302 ) ) ( <= ( + T7 334 )( + T5 326 ) ) )
(or ( <= ( + T5 379 )  ( + T7 334 ) ) ( <= ( + T7 393 )( + T5 327 ) ) )
(or ( <= ( + T5 383 )  ( + T7 393 ) ) ( <= ( + T7 395 )( + T5 379 ) ) )
(or ( <= ( + T5 54 ) T8 ) ( <= ( + T8 74 ) T5 ) )
(or ( <= ( + T5 134 )  ( + T8 74 ) ) ( <= ( + T8 139 )( + T5 54 ) ) )
(or ( <= ( + T5 157 )  ( + T8 139 ) ) ( <= ( + T8 172 )( + T5 134 ) ) )
(or ( <= ( + T5 242 )  ( + T8 172 ) ) ( <= ( + T8 268 )( + T5 157 ) ) )
(or ( <= ( + T5 263 )  ( + T8 268 ) ) ( <= ( + T8 317 )( + T5 242 ) ) )
(or ( <= ( + T5 292 )  ( + T8 317 ) ) ( <= ( + T8 322 )( + T5 263 ) ) )
(or ( <= ( + T5 326 )  ( + T8 322 ) ) ( <= ( + T8 347 )( + T5 292 ) ) )
(or ( <= ( + T5 327 )  ( + T8 347 ) ) ( <= ( + T8 429 )( + T5 326 ) ) )
(or ( <= ( + T5 379 )  ( + T8 429 ) ) ( <= ( + T8 435 )( + T5 327 ) ) )
(or ( <= ( + T5 383 )  ( + T8 435 ) ) ( <= ( + T8 511 )( + T5 379 ) ) )
(or ( <= ( + T6 44 ) T7 ) ( <= ( + T7 10 ) T6 ) )
(or ( <= ( + T6 139 )  ( + T7 10 ) ) ( <= ( + T7 47 )( + T6 44 ) ) )
(or ( <= ( + T6 170 )  ( + T7 47 ) ) ( <= ( + T7 105 )( + T6 139 ) ) )
(or ( <= ( + T6 224 )  ( + T7 105 ) ) ( <= ( + T7 155 )( + T6 170 ) ) )
(or ( <= ( + T6 226 )  ( + T7 155 ) ) ( <= ( + T7 218 )( + T6 224 ) ) )
(or ( <= ( + T6 299 )  ( + T7 218 ) ) ( <= ( + T7 260 )( + T6 226 ) ) )
(or ( <= ( + T6 392 )  ( + T7 260 ) ) ( <= ( + T7 302 )( + T6 299 ) ) )
(or ( <= ( + T6 405 )  ( + T7 302 ) ) ( <= ( + T7 334 )( + T6 392 ) ) )
(or ( <= ( + T6 412 )  ( + T7 334 ) ) ( <= ( + T7 393 )( + T6 405 ) ) )
(or ( <= ( + T6 418 )  ( + T7 393 ) ) ( <= ( + T7 395 )( + T6 412 ) ) )
(or ( <= ( + T6 44 ) T8 ) ( <= ( + T8 74 ) T6 ) )
(or ( <= ( + T6 139 )  ( + T8 74 ) ) ( <= ( + T8 139 )( + T6 44 ) ) )
(or ( <= ( + T6 170 )  ( + T8 139 ) ) ( <= ( + T8 172 )( + T6 139 ) ) )
(or ( <= ( + T6 224 )  ( + T8 172 ) ) ( <= ( + T8 268 )( + T6 170 ) ) )
(or ( <= ( + T6 226 )  ( + T8 268 ) ) ( <= ( + T8 317 )( + T6 224 ) ) )
(or ( <= ( + T6 299 )  ( + T8 317 ) ) ( <= ( + T8 322 )( + T6 226 ) ) )
(or ( <= ( + T6 392 )  ( + T8 322 ) ) ( <= ( + T8 347 )( + T6 299 ) ) )
(or ( <= ( + T6 405 )  ( + T8 347 ) ) ( <= ( + T8 429 )( + T6 392 ) ) )
(or ( <= ( + T6 412 )  ( + T8 429 ) ) ( <= ( + T8 435 )( + T6 405 ) ) )
(or ( <= ( + T6 418 )  ( + T8 435 ) ) ( <= ( + T8 511 )( + T6 412 ) ) )
(or ( <= ( + T7 10 ) T8 ) ( <= ( + T8 74 ) T7 ) )
(or ( <= ( + T7 47 )  ( + T8 74 ) ) ( <= ( + T8 139 )( + T7 10 ) ) )
(or ( <= ( + T7 105 )  ( + T8 139 ) ) ( <= ( + T8 172 )( + T7 47 ) ) )
(or ( <= ( + T7 155 )  ( + T8 172 ) ) ( <= ( + T8 268 )( + T7 105 ) ) )
(or ( <= ( + T7 218 )  ( + T8 268 ) ) ( <= ( + T8 317 )( + T7 155 ) ) )
(or ( <= ( + T7 260 )  ( + T8 317 ) ) ( <= ( + T8 322 )( + T7 218 ) ) )
(or ( <= ( + T7 302 )  ( + T8 322 ) ) ( <= ( + T8 347 )( + T7 260 ) ) )
(or ( <= ( + T7 334 )  ( + T8 347 ) ) ( <= ( + T8 429 )( + T7 302 ) ) )
(or ( <= ( + T7 393 )  ( + T8 429 ) ) ( <= ( + T8 435 )( + T7 334 ) ) )
(or ( <= ( + T7 395 )  ( + T8 435 ) ) ( <= ( + T8 511 )( + T7 393 ) ) )
( <= ( + T1 607 ) Z)
( <= ( + T2 490 ) Z)
( <= ( + T3 524 ) Z)
( <= ( + T4 454 ) Z)
( <= ( + T5 383 ) Z)
( <= ( + T6 418 ) Z)
( <= ( + T7 395 ) Z)
( <= ( + T8 511 ) Z)
( >= T1 0 )
( >= T2 0 )
( >= T3 0 )
( >= T4 0 )
( >= T5 0 )
( >= T6 0 )
( >= T7 0 )
( >= T8 0 )
) )
)(=> $phi $goal))))